c b=3,c=81
p cnf 13 29
3 -6 0
1 3 -10 0
3 -12 0
-3 6 0
1 -3 10 0
1 -3 12 0
2 -5 0
2 -9 0
1 2 -11 0
-2 5 0
-2 9 0
1 -2 11 0
1 -4 0
1 -8 0
1 -13 0
-1 3 10 0
2 3 -11 0
-1 -3 -10 0
-1 2 -3 11 0
2 -3 12 0
2 -13 0
-2 3 11 0
3 -13 0
-1 -2 -3 -11 0
-1 -2 -3 13 0
-1 -2 -12 0
-1 4 0
-1 8 0
-7 0
